NAME 
OBJSENSE MAX
ROWS
 N  OBJ
 L  packing[0]
 L  packing[1]
 L  packing[2]
 L  packing[3]
 L  packing[4]
 L  packing[5]
 L  packing[6]
 L  packing[7]
 L  packing[8]
 L  packing[9]
 L  packing[10]
 L  packing[11]
 L  packing[12]
 L  packing[13]
 L  packing[14]
 L  packing[15]
 L  packing[16]
 L  packing[17]
 L  packing[18]
 L  packing[19]
 L  packing[20]
 L  packing[21]
 L  packing[22]
 L  packing[23]
 L  packing[24]
 L  packing[25]
 L  packing[26]
 L  packing[27]
 L  packing[28]
 L  packing[29]
 L  packing[30]
 L  packing[31]
 L  packing[32]
 L  packing[33]
 L  packing[34]
 L  packing[35]
 L  packing[36]
 L  packing[37]
 L  packing[38]
 L  packing[39]
 L  packing[40]
 L  packing[41]
 L  packing[42]
 L  packing[43]
 L  packing[44]
 L  packing[45]
 L  packing[46]
 L  packing[47]
 L  packing[48]
 L  packing[49]
 L  R50     
COLUMNS
    MARKER    'MARKER'                 'INTORG'
    x[1]      OBJ       60
    x[1]      packing[1]  91
    x[1]      packing[2]  102
    x[1]      packing[3]  93
    x[1]      packing[4]  96
    x[1]      packing[5]  138
    x[1]      packing[7]  47
    x[1]      packing[8]  49
    x[1]      packing[9]  126
    x[1]      packing[10]  126
    x[1]      packing[11]  179
    x[1]      packing[12]  171
    x[1]      packing[13]  157
    x[1]      packing[14]  58
    x[1]      packing[15]  80
    x[1]      packing[16]  66
    x[1]      packing[17]  21
    x[1]      packing[22]  129
    x[1]      packing[23]  120
    x[1]      packing[25]  29
    x[1]      packing[26]  149
    x[1]      packing[27]  33
    x[1]      packing[29]  137
    x[1]      packing[30]  148
    x[1]      packing[31]  143
    x[1]      packing[32]  178
    x[1]      packing[35]  92
    x[1]      packing[36]  42
    x[1]      packing[37]  59
    x[1]      packing[38]  150
    x[1]      packing[39]  81
    x[1]      packing[40]  148
    x[1]      packing[41]  165
    x[1]      packing[43]  152
    x[1]      packing[44]  21
    x[1]      packing[45]  83
    x[1]      packing[46]  135
    x[1]      packing[49]  171
    x[2]      OBJ       183
    x[2]      packing[0]  95
    x[2]      packing[1]  139
    x[2]      packing[2]  162
    x[2]      packing[4]  112
    x[2]      packing[5]  18
    x[2]      packing[7]  194
    x[2]      packing[8]  179
    x[2]      packing[9]  43
    x[2]      packing[11]  55
    x[2]      packing[12]  176
    x[2]      packing[15]  172
    x[2]      packing[16]  133
    x[2]      packing[18]  153
    x[2]      packing[19]  163
    x[2]      packing[20]  140
    x[2]      packing[21]  38
    x[2]      packing[22]  116
    x[2]      packing[23]  134
    x[2]      packing[25]  110
    x[2]      packing[26]  28
    x[2]      packing[27]  23
    x[2]      packing[28]  81
    x[2]      packing[29]  156
    x[2]      packing[31]  50
    x[2]      packing[32]  179
    x[2]      packing[34]  176
    x[2]      packing[35]  39
    x[2]      packing[36]  185
    x[2]      packing[37]  138
    x[2]      packing[38]  139
    x[2]      packing[39]  96
    x[2]      packing[40]  172
    x[2]      packing[42]  75
    x[2]      packing[43]  54
    x[2]      packing[44]  147
    x[2]      packing[45]  135
    x[2]      packing[46]  43
    x[2]      packing[47]  127
    x[2]      packing[49]  197
    x[3]      OBJ       137
    x[3]      packing[0]  117
    x[3]      packing[2]  58
    x[3]      packing[3]  94
    x[3]      packing[4]  124
    x[3]      packing[6]  60
    x[3]      packing[10]  72
    x[3]      packing[11]  118
    x[3]      packing[12]  2
    x[3]      packing[16]  20
    x[3]      packing[17]  22
    x[3]      packing[18]  194
    x[3]      packing[21]  103
    x[3]      packing[22]  150
    x[3]      packing[23]  85
    x[3]      packing[24]  52
    x[3]      packing[26]  193
    x[3]      packing[27]  168
    x[3]      packing[28]  151
    x[3]      packing[30]  30
    x[3]      packing[31]  22
    x[3]      packing[32]  120
    x[3]      packing[33]  86
    x[3]      packing[34]  79
    x[3]      packing[35]  40
    x[3]      packing[36]  138
    x[3]      packing[37]  137
    x[3]      packing[38]  100
    x[3]      packing[39]  21
    x[3]      packing[40]  186
    x[3]      packing[41]  114
    x[3]      packing[42]  84
    x[3]      packing[43]  82
    x[3]      packing[44]  56
    x[3]      packing[45]  83
    x[3]      packing[46]  98
    x[3]      packing[47]  90
    x[3]      packing[48]  100
    x[4]      OBJ       118
    x[4]      packing[0]  175
    x[4]      packing[1]  114
    x[4]      packing[2]  53
    x[4]      packing[3]  116
    x[4]      packing[4]  26
    x[4]      packing[5]  108
    x[4]      packing[6]  9
    x[4]      packing[7]  29
    x[4]      packing[9]  28
    x[4]      packing[11]  62
    x[4]      packing[12]  84
    x[4]      packing[16]  13
    x[4]      packing[17]  175
    x[4]      packing[18]  183
    x[4]      packing[20]  70
    x[4]      packing[21]  139
    x[4]      packing[22]  161
    x[4]      packing[23]  93
    x[4]      packing[24]  106
    x[4]      packing[25]  160
    x[4]      packing[27]  97
    x[4]      packing[28]  51
    x[4]      packing[29]  156
    x[4]      packing[30]  140
    x[4]      packing[31]  24
    x[4]      packing[32]  55
    x[4]      packing[33]  103
    x[4]      packing[34]  47
    x[4]      packing[36]  24
    x[4]      packing[37]  65
    x[4]      packing[38]  149
    x[4]      packing[39]  14
    x[4]      packing[40]  8
    x[4]      packing[41]  46
    x[4]      packing[42]  59
    x[4]      packing[43]  199
    x[4]      packing[44]  33
    x[4]      packing[46]  103
    x[4]      packing[47]  93
    x[4]      packing[48]  77
    x[4]      packing[49]  196
    x[5]      OBJ       102
    x[5]      packing[0]  119
    x[5]      packing[1]  76
    x[5]      packing[3]  129
    x[5]      packing[4]  75
    x[5]      packing[5]  29
    x[5]      packing[6]  25
    x[5]      packing[7]  53
    x[5]      packing[8]  107
    x[5]      packing[9]  144
    x[5]      packing[11]  43
    x[5]      packing[12]  32
    x[5]      packing[13]  42
    x[5]      packing[15]  80
    x[5]      packing[17]  193
    x[5]      packing[18]  186
    x[5]      packing[19]  176
    x[5]      packing[20]  36
    x[5]      packing[21]  24
    x[5]      packing[22]  142
    x[5]      packing[24]  169
    x[5]      packing[25]  142
    x[5]      packing[27]  21
    x[5]      packing[28]  69
    x[5]      packing[30]  130
    x[5]      packing[31]  156
    x[5]      packing[32]  99
    x[5]      packing[33]  192
    x[5]      packing[35]  82
    x[5]      packing[36]  142
    x[5]      packing[37]  155
    x[5]      packing[38]  166
    x[5]      packing[39]  186
    x[5]      packing[40]  109
    x[5]      packing[41]  128
    x[5]      packing[44]  121
    x[5]      packing[45]  93
    x[5]      packing[46]  24
    x[5]      packing[49]  152
    x[6]      OBJ       107
    x[6]      packing[2]  23
    x[6]      packing[3]  6
    x[6]      packing[4]  167
    x[6]      packing[5]  1
    x[6]      packing[6]  38
    x[6]      packing[7]  110
    x[6]      packing[9]  44
    x[6]      packing[10]  155
    x[6]      packing[12]  121
    x[6]      packing[13]  14
    x[6]      packing[15]  124
    x[6]      packing[16]  55
    x[6]      packing[19]  155
    x[6]      packing[20]  186
    x[6]      packing[21]  191
    x[6]      packing[22]  49
    x[6]      packing[23]  161
    x[6]      packing[24]  120
    x[6]      packing[25]  86
    x[6]      packing[26]  54
    x[6]      packing[28]  28
    x[6]      packing[29]  155
    x[6]      packing[30]  157
    x[6]      packing[31]  57
    x[6]      packing[32]  61
    x[6]      packing[33]  4
    x[6]      packing[34]  81
    x[6]      packing[35]  52
    x[6]      packing[37]  189
    x[6]      packing[38]  32
    x[6]      packing[39]  71
    x[6]      packing[40]  143
    x[6]      packing[41]  190
    x[6]      packing[43]  28
    x[6]      packing[44]  193
    x[6]      packing[45]  181
    x[6]      packing[46]  64
    x[6]      packing[48]  197
    x[6]      packing[49]  48
    x[7]      OBJ       159
    x[7]      packing[0]  80
    x[7]      packing[1]  34
    x[7]      packing[2]  132
    x[7]      packing[3]  42
    x[7]      packing[4]  137
    x[7]      packing[6]  49
    x[7]      packing[9]  80
    x[7]      packing[10]  167
    x[7]      packing[12]  13
    x[7]      packing[13]  122
    x[7]      packing[16]  192
    x[7]      packing[17]  5
    x[7]      packing[18]  98
    x[7]      packing[20]  46
    x[7]      packing[21]  193
    x[7]      packing[22]  42
    x[7]      packing[23]  159
    x[7]      packing[25]  46
    x[7]      packing[26]  169
    x[7]      packing[27]  194
    x[7]      packing[28]  148
    x[7]      packing[29]  131
    x[7]      packing[31]  65
    x[7]      packing[32]  55
    x[7]      packing[35]  111
    x[7]      packing[36]  11
    x[7]      packing[37]  172
    x[7]      packing[38]  141
    x[7]      packing[39]  108
    x[7]      packing[40]  49
    x[7]      packing[41]  71
    x[7]      packing[42]  115
    x[7]      packing[43]  138
    x[7]      packing[44]  127
    x[7]      packing[46]  149
    x[7]      R50       1
    x[8]      OBJ       125
    x[8]      packing[1]  15
    x[8]      packing[2]  102
    x[8]      packing[3]  164
    x[8]      packing[4]  152
    x[8]      packing[7]  141
    x[8]      packing[9]  39
    x[8]      packing[11]  188
    x[8]      packing[12]  185
    x[8]      packing[13]  165
    x[8]      packing[15]  49
    x[8]      packing[16]  127
    x[8]      packing[17]  39
    x[8]      packing[18]  91
    x[8]      packing[19]  76
    x[8]      packing[20]  184
    x[8]      packing[21]  161
    x[8]      packing[22]  114
    x[8]      packing[23]  148
    x[8]      packing[24]  140
    x[8]      packing[25]  135
    x[8]      packing[26]  63
    x[8]      packing[27]  194
    x[8]      packing[28]  137
    x[8]      packing[29]  14
    x[8]      packing[30]  196
    x[8]      packing[31]  14
    x[8]      packing[32]  164
    x[8]      packing[33]  199
    x[8]      packing[34]  1
    x[8]      packing[35]  121
    x[8]      packing[36]  110
    x[8]      packing[37]  99
    x[8]      packing[38]  118
    x[8]      packing[40]  92
    x[8]      packing[41]  183
    x[8]      packing[42]  31
    x[8]      packing[44]  48
    x[8]      packing[46]  119
    x[8]      packing[47]  157
    x[8]      packing[49]  193
    x[9]      OBJ       133
    x[9]      packing[0]  41
    x[9]      packing[1]  126
    x[9]      packing[2]  39
    x[9]      packing[4]  138
    x[9]      packing[5]  101
    x[9]      packing[7]  194
    x[9]      packing[8]  78
    x[9]      packing[9]  153
    x[9]      packing[10]  142
    x[9]      packing[11]  161
    x[9]      packing[12]  75
    x[9]      packing[18]  175
    x[9]      packing[19]  54
    x[9]      packing[20]  44
    x[9]      packing[21]  57
    x[9]      packing[22]  110
    x[9]      packing[24]  10
    x[9]      packing[25]  66
    x[9]      packing[27]  121
    x[9]      packing[28]  27
    x[9]      packing[29]  50
    x[9]      packing[30]  194
    x[9]      packing[31]  150
    x[9]      packing[32]  15
    x[9]      packing[33]  178
    x[9]      packing[34]  36
    x[9]      packing[36]  53
    x[9]      packing[37]  15
    x[9]      packing[38]  62
    x[9]      packing[39]  96
    x[9]      packing[40]  2
    x[9]      packing[41]  83
    x[9]      packing[42]  193
    x[9]      packing[43]  51
    x[9]      packing[44]  124
    x[9]      packing[45]  164
    x[9]      packing[46]  76
    x[9]      packing[47]  108
    x[9]      packing[48]  193
    x[9]      packing[49]  89
    x[10]     OBJ       181
    x[10]     packing[0]  139
    x[10]     packing[1]  80
    x[10]     packing[3]  189
    x[10]     packing[4]  6
    x[10]     packing[5]  33
    x[10]     packing[6]  124
    x[10]     packing[7]  151
    x[10]     packing[8]  100
    x[10]     packing[9]  172
    x[10]     packing[10]  199
    x[10]     packing[11]  76
    x[10]     packing[13]  185
    x[10]     packing[16]  14
    x[10]     packing[17]  180
    x[10]     packing[18]  84
    x[10]     packing[19]  153
    x[10]     packing[21]  73
    x[10]     packing[22]  185
    x[10]     packing[23]  123
    x[10]     packing[24]  181
    x[10]     packing[25]  52
    x[10]     packing[26]  122
    x[10]     packing[27]  188
    x[10]     packing[30]  98
    x[10]     packing[31]  111
    x[10]     packing[32]  82
    x[10]     packing[34]  55
    x[10]     packing[37]  146
    x[10]     packing[41]  46
    x[10]     packing[42]  93
    x[10]     packing[44]  26
    x[10]     packing[45]  142
    x[10]     packing[46]  148
    x[10]     packing[47]  98
    x[10]     packing[48]  26
    x[10]     packing[49]  43
    x[10]     R50       1
    x[11]     OBJ       99
    x[11]     packing[0]  157
    x[11]     packing[1]  89
    x[11]     packing[3]  162
    x[11]     packing[4]  53
    x[11]     packing[5]  52
    x[11]     packing[6]  56
    x[11]     packing[8]  2
    x[11]     packing[9]  176
    x[11]     packing[10]  79
    x[11]     packing[14]  59
    x[11]     packing[15]  126
    x[11]     packing[16]  163
    x[11]     packing[17]  112
    x[11]     packing[18]  158
    x[11]     packing[19]  56
    x[11]     packing[20]  194
    x[11]     packing[21]  185
    x[11]     packing[22]  120
    x[11]     packing[24]  33
    x[11]     packing[26]  168
    x[11]     packing[27]  163
    x[11]     packing[28]  132
    x[11]     packing[29]  34
    x[11]     packing[30]  127
    x[11]     packing[31]  104
    x[11]     packing[32]  192
    x[11]     packing[33]  87
    x[11]     packing[34]  6
    x[11]     packing[35]  174
    x[11]     packing[36]  127
    x[11]     packing[37]  36
    x[11]     packing[38]  127
    x[11]     packing[39]  133
    x[11]     packing[41]  160
    x[11]     packing[42]  83
    x[11]     packing[43]  67
    x[11]     packing[44]  19
    x[11]     packing[45]  181
    x[11]     packing[46]  129
    x[11]     packing[47]  182
    x[11]     packing[49]  164
    x[12]     OBJ       156
    x[12]     packing[0]  19
    x[12]     packing[1]  38
    x[12]     packing[2]  82
    x[12]     packing[3]  140
    x[12]     packing[4]  1
    x[12]     packing[5]  4
    x[12]     packing[7]  153
    x[12]     packing[9]  43
    x[12]     packing[10]  118
    x[12]     packing[11]  11
    x[12]     packing[12]  103
    x[12]     packing[13]  191
    x[12]     packing[14]  136
    x[12]     packing[15]  25
    x[12]     packing[17]  123
    x[12]     packing[18]  88
    x[12]     packing[20]  139
    x[12]     packing[21]  185
    x[12]     packing[22]  22
    x[12]     packing[25]  46
    x[12]     packing[27]  24
    x[12]     packing[28]  127
    x[12]     packing[29]  54
    x[12]     packing[30]  138
    x[12]     packing[31]  146
    x[12]     packing[33]  118
    x[12]     packing[34]  89
    x[12]     packing[36]  184
    x[12]     packing[37]  87
    x[12]     packing[39]  131
    x[12]     packing[40]  107
    x[12]     packing[41]  198
    x[12]     packing[42]  97
    x[12]     packing[44]  38
    x[12]     packing[45]  13
    x[12]     packing[47]  183
    x[12]     packing[48]  131
    x[12]     packing[49]  147
    x[12]     R50       1
    x[13]     OBJ       188
    x[13]     packing[0]  61
    x[13]     packing[2]  188
    x[13]     packing[4]  12
    x[13]     packing[6]  56
    x[13]     packing[8]  156
    x[13]     packing[9]  7
    x[13]     packing[10]  45
    x[13]     packing[11]  118
    x[13]     packing[12]  2
    x[13]     packing[14]  93
    x[13]     packing[15]  137
    x[13]     packing[17]  52
    x[13]     packing[18]  69
    x[13]     packing[19]  122
    x[13]     packing[20]  123
    x[13]     packing[21]  128
    x[13]     packing[22]  82
    x[13]     packing[23]  21
    x[13]     packing[24]  193
    x[13]     packing[27]  83
    x[13]     packing[28]  129
    x[13]     packing[29]  68
    x[13]     packing[30]  11
    x[13]     packing[35]  60
    x[13]     packing[36]  152
    x[13]     packing[37]  55
    x[13]     packing[38]  37
    x[13]     packing[39]  104
    x[13]     packing[40]  82
    x[13]     packing[41]  58
    x[13]     packing[43]  2
    x[13]     packing[45]  194
    x[13]     packing[46]  148
    x[13]     packing[48]  177
    x[14]     OBJ       37
    x[14]     packing[1]  63
    x[14]     packing[2]  105
    x[14]     packing[3]  25
    x[14]     packing[4]  151
    x[14]     packing[8]  84
    x[14]     packing[9]  176
    x[14]     packing[10]  60
    x[14]     packing[11]  45
    x[14]     packing[12]  148
    x[14]     packing[13]  86
    x[14]     packing[14]  96
    x[14]     packing[15]  60
    x[14]     packing[17]  192
    x[14]     packing[18]  106
    x[14]     packing[19]  99
    x[14]     packing[20]  28
    x[14]     packing[21]  43
    x[14]     packing[22]  191
    x[14]     packing[23]  64
    x[14]     packing[25]  19
    x[14]     packing[27]  158
    x[14]     packing[28]  62
    x[14]     packing[29]  88
    x[14]     packing[30]  131
    x[14]     packing[31]  164
    x[14]     packing[32]  151
    x[14]     packing[33]  23
    x[14]     packing[35]  9
    x[14]     packing[36]  165
    x[14]     packing[38]  56
    x[14]     packing[39]  125
    x[14]     packing[41]  128
    x[14]     packing[42]  38
    x[14]     packing[43]  65
    x[14]     packing[44]  176
    x[14]     packing[45]  148
    x[14]     packing[46]  172
    x[14]     packing[47]  177
    x[14]     packing[48]  84
    x[14]     packing[49]  157
    x[15]     OBJ       164
    x[15]     packing[0]  115
    x[15]     packing[1]  12
    x[15]     packing[3]  83
    x[15]     packing[5]  7
    x[15]     packing[6]  11
    x[15]     packing[7]  52
    x[15]     packing[8]  6
    x[15]     packing[10]  162
    x[15]     packing[12]  110
    x[15]     packing[13]  37
    x[15]     packing[14]  100
    x[15]     packing[15]  184
    x[15]     packing[16]  92
    x[15]     packing[17]  53
    x[15]     packing[19]  150
    x[15]     packing[20]  66
    x[15]     packing[23]  185
    x[15]     packing[24]  107
    x[15]     packing[25]  85
    x[15]     packing[26]  132
    x[15]     packing[27]  131
    x[15]     packing[28]  34
    x[15]     packing[30]  115
    x[15]     packing[31]  156
    x[15]     packing[32]  99
    x[15]     packing[33]  54
    x[15]     packing[36]  169
    x[15]     packing[37]  5
    x[15]     packing[38]  144
    x[15]     packing[39]  149
    x[15]     packing[41]  39
    x[15]     packing[42]  89
    x[15]     packing[45]  123
    x[15]     packing[49]  101
    x[15]     R50       1
    x[16]     OBJ       175
    x[16]     packing[0]  114
    x[16]     packing[1]  126
    x[16]     packing[2]  19
    x[16]     packing[3]  137
    x[16]     packing[5]  93
    x[16]     packing[7]  148
    x[16]     packing[8]  127
    x[16]     packing[11]  95
    x[16]     packing[13]  112
    x[16]     packing[14]  96
    x[16]     packing[16]  184
    x[16]     packing[17]  153
    x[16]     packing[19]  154
    x[16]     packing[20]  12
    x[16]     packing[21]  70
    x[16]     packing[22]  59
    x[16]     packing[23]  101
    x[16]     packing[25]  11
    x[16]     packing[26]  179
    x[16]     packing[28]  81
    x[16]     packing[29]  14
    x[16]     packing[30]  116
    x[16]     packing[31]  101
    x[16]     packing[32]  186
    x[16]     packing[34]  48
    x[16]     packing[36]  106
    x[16]     packing[37]  24
    x[16]     packing[38]  123
    x[16]     packing[39]  130
    x[16]     packing[40]  156
    x[16]     packing[43]  56
    x[16]     packing[45]  108
    x[16]     packing[46]  15
    x[16]     packing[47]  146
    x[16]     packing[49]  170
    x[16]     R50       1
    x[17]     OBJ       2
    x[17]     packing[1]  18
    x[17]     packing[2]  117
    x[17]     packing[3]  58
    x[17]     packing[4]  183
    x[17]     packing[5]  192
    x[17]     packing[6]  102
    x[17]     packing[7]  179
    x[17]     packing[8]  165
    x[17]     packing[10]  96
    x[17]     packing[11]  130
    x[17]     packing[12]  187
    x[17]     packing[13]  37
    x[17]     packing[14]  105
    x[17]     packing[15]  59
    x[17]     packing[16]  151
    x[17]     packing[20]  164
    x[17]     packing[21]  144
    x[17]     packing[25]  108
    x[17]     packing[26]  105
    x[17]     packing[27]  173
    x[17]     packing[28]  126
    x[17]     packing[29]  141
    x[17]     packing[30]  185
    x[17]     packing[31]  117
    x[17]     packing[32]  38
    x[17]     packing[33]  35
    x[17]     packing[34]  98
    x[17]     packing[35]  178
    x[17]     packing[36]  87
    x[17]     packing[37]  93
    x[17]     packing[39]  32
    x[17]     packing[40]  172
    x[17]     packing[41]  98
    x[17]     packing[43]  91
    x[17]     packing[44]  70
    x[17]     packing[46]  26
    x[17]     packing[47]  36
    x[17]     packing[48]  127
    x[17]     packing[49]  78
    x[18]     OBJ       97
    x[18]     packing[0]  90
    x[18]     packing[1]  122
    x[18]     packing[2]  117
    x[18]     packing[3]  75
    x[18]     packing[4]  8
    x[18]     packing[5]  49
    x[18]     packing[6]  28
    x[18]     packing[7]  130
    x[18]     packing[8]  151
    x[18]     packing[9]  47
    x[18]     packing[10]  191
    x[18]     packing[11]  141
    x[18]     packing[13]  92
    x[18]     packing[14]  96
    x[18]     packing[16]  22
    x[18]     packing[17]  60
    x[18]     packing[18]  193
    x[18]     packing[20]  12
    x[18]     packing[22]  82
    x[18]     packing[23]  122
    x[18]     packing[24]  76
    x[18]     packing[25]  153
    x[18]     packing[26]  15
    x[18]     packing[30]  51
    x[18]     packing[32]  47
    x[18]     packing[35]  22
    x[18]     packing[36]  113
    x[18]     packing[37]  199
    x[18]     packing[38]  181
    x[18]     packing[39]  78
    x[18]     packing[40]  66
    x[18]     packing[41]  49
    x[18]     packing[44]  174
    x[18]     packing[45]  95
    x[18]     packing[46]  140
    x[18]     packing[48]  32
    x[19]     OBJ       53
    x[19]     packing[0]  9
    x[19]     packing[1]  176
    x[19]     packing[2]  19
    x[19]     packing[4]  96
    x[19]     packing[6]  135
    x[19]     packing[7]  46
    x[19]     packing[8]  125
    x[19]     packing[9]  84
    x[19]     packing[11]  73
    x[19]     packing[12]  191
    x[19]     packing[15]  100
    x[19]     packing[16]  147
    x[19]     packing[17]  169
    x[19]     packing[18]  30
    x[19]     packing[21]  107
    x[19]     packing[22]  16
    x[19]     packing[23]  182
    x[19]     packing[24]  71
    x[19]     packing[25]  181
    x[19]     packing[26]  103
    x[19]     packing[27]  13
    x[19]     packing[28]  105
    x[19]     packing[29]  158
    x[19]     packing[30]  146
    x[19]     packing[31]  126
    x[19]     packing[32]  134
    x[19]     packing[34]  72
    x[19]     packing[36]  10
    x[19]     packing[39]  183
    x[19]     packing[40]  56
    x[19]     packing[41]  32
    x[19]     packing[42]  59
    x[19]     packing[44]  123
    x[19]     packing[45]  196
    x[19]     packing[46]  59
    x[19]     packing[47]  185
    x[19]     packing[48]  22
    x[19]     packing[49]  177
    x[20]     OBJ       117
    x[20]     packing[0]  38
    x[20]     packing[1]  147
    x[20]     packing[2]  145
    x[20]     packing[3]  71
    x[20]     packing[4]  184
    x[20]     packing[5]  73
    x[20]     packing[6]  190
    x[20]     packing[7]  11
    x[20]     packing[9]  126
    x[20]     packing[12]  58
    x[20]     packing[13]  49
    x[20]     packing[15]  177
    x[20]     packing[16]  46
    x[20]     packing[17]  196
    x[20]     packing[18]  150
    x[20]     packing[19]  20
    x[20]     packing[21]  2
    x[20]     packing[22]  124
    x[20]     packing[23]  113
    x[20]     packing[24]  144
    x[20]     packing[27]  115
    x[20]     packing[28]  4
    x[20]     packing[29]  106
    x[20]     packing[30]  31
    x[20]     packing[31]  78
    x[20]     packing[32]  5
    x[20]     packing[34]  130
    x[20]     packing[35]  170
    x[20]     packing[37]  8
    x[20]     packing[38]  59
    x[20]     packing[39]  109
    x[20]     packing[40]  118
    x[20]     packing[41]  112
    x[20]     packing[42]  90
    x[20]     packing[43]  195
    x[20]     packing[45]  81
    x[20]     packing[46]  117
    x[20]     packing[47]  153
    x[20]     packing[48]  117
    x[20]     packing[49]  66
    MARKER    'MARKER'                 'INTEND'
RHS
    RHS1      packing[0]  685
    RHS1      packing[1]  733
    RHS1      packing[2]  732
    RHS1      packing[3]  792
    RHS1      packing[4]  861
    RHS1      packing[5]  449
    RHS1      packing[6]  442
    RHS1      packing[7]  819
    RHS1      packing[8]  665
    RHS1      packing[9]  744
    RHS1      packing[10]  806
    RHS1      packing[11]  748
    RHS1      packing[12]  829
    RHS1      packing[13]  645
    RHS1      packing[14]  420
    RHS1      packing[15]  687
    RHS1      packing[16]  713
    RHS1      packing[17]  873
    RHS1      packing[18]  979
    RHS1      packing[19]  689
    RHS1      packing[20]  722
    RHS1      packing[21]  922
    RHS1      packing[22]  947
    RHS1      packing[23]  906
    RHS1      packing[24]  701
    RHS1      packing[25]  715
    RHS1      packing[26]  740
    RHS1      packing[27]  950
    RHS1      packing[28]  746
    RHS1      packing[29]  731
    RHS1      packing[30]  1072
    RHS1      packing[31]  892
    RHS1      packing[32]  930
    RHS1      packing[33]  540
    RHS1      packing[34]  459
    RHS1      packing[35]  575
    RHS1      packing[36]  909
    RHS1      packing[37]  841
    RHS1      packing[38]  892
    RHS1      packing[39]  924
    RHS1      packing[40]  833
    RHS1      packing[41]  950
    RHS1      packing[42]  553
    RHS1      packing[43]  590
    RHS1      packing[44]  748
    RHS1      packing[45]  1010
    RHS1      packing[46]  883
    RHS1      packing[47]  868
    RHS1      packing[48]  642
    RHS1      packing[49]  1075
    RHS1      R50       4
BOUNDS
 BV BND1      x[1]    
 BV BND1      x[2]    
 BV BND1      x[3]    
 BV BND1      x[4]    
 BV BND1      x[5]    
 BV BND1      x[6]    
 BV BND1      x[7]    
 BV BND1      x[8]    
 BV BND1      x[9]    
 BV BND1      x[10]   
 BV BND1      x[11]   
 BV BND1      x[12]   
 BV BND1      x[13]   
 BV BND1      x[14]   
 BV BND1      x[15]   
 BV BND1      x[16]   
 BV BND1      x[17]   
 BV BND1      x[18]   
 BV BND1      x[19]   
 BV BND1      x[20]   
ENDATA
